\* Problem: Unknown *\

Minimize
 obj: - 100 x_1 + 10000 x_2 + 10000 x_3 - 100 x_4 - 100 x_5 - 100 x_6
 - 100 x_7 - 100 x_8 + 100 x_10 - 100 x_11 - 100 x_12 - 100 x_13
 + 100 x_15 - 11000 x_16 - 10800 x_17 - 10700 x_18 + 999989300 x_19
 - 100 x_20 - 100 x_21

Subject To
 r_1: + x_2 + x_1 = 0.02
 r_2: + x_21 >= 0
 r_3: + x_5 + x_4 + x_3 = 0.02
 r_4: + x_20 >= 0
 r_5: + x_6 + x_5 - ~r_5 = 0
 r_6: + x_7 - ~r_6 = 0
 r_7: + x_8 + x_7 + x_6 >= 0
 r_8: + x_17 >= 0
 r_9: + x_10 + x_9 >= 0
 r_10: + x_9 - ~r_10 = 0
 r_11: + x_10 >= 0
 r_12: + x_13 + x_12 + x_11 >= 0
 r_13: + x_18 >= 0
 r_14: + x_15 + x_14 >= 0
 r_15: + x_14 - ~r_15 = 0
 r_16: + x_15 >= 0
 r_17: + x_16 = 0
 r_18: + x_11 + x_1 - ~r_18 = 0
 r_19: + x_12 - ~r_19 = 0
 r_20: + x_19 + x_18 + x_17 + x_16 = 122878.08
 r_21: + x_8 = 0
 r_22: + x_20 = 0
 r_23: + x_13 = 0
 r_24: + x_21 = 0
 r_25: + x_2 = 0
 r_26: + x_3 = 0
 r_27: + x_19 + x_18 + x_17 + x_16 >= 0
 r_28: + x_19 + x_18 + x_17 >= 0
 r_29: + x_19 + x_18 >= 0
 r_30: + x_4 - ~r_30 = 0
 r_31: + x_19 >= 0
 r_32: + x_10 + x_9 - x_17 = 0
 r_33: + x_8 + x_7 + x_6 - x_10 - x_9 = 0
 r_34: + x_15 + x_14 - x_18 = 0
 r_35: + x_13 + x_12 + x_11 - x_15 - x_14 = 0
 r_36: - x_2 - x_1 + x_21 - ~r_36 = -0.00416666666666667
 r_37: - x_5 - x_4 - x_3 + x_20 - ~r_37 = -0.00416666666666667

Bounds
 0 <= ~r_5 <= 1e+15
 0 <= ~r_6 <= 1e+15
 0 <= ~r_10 <= 245.75616
 0 <= ~r_15 <= 12287.808
 0 <= ~r_18 <= 1e+15
 0 <= ~r_19 <= 1e+15
 0 <= ~r_30 <= 1e+15
 0 <= ~r_36 <= 0.0375
 0 <= ~r_37 <= 0.0375

End
